sat
(model 
  (define-fun x215 () Int
    149)
  (define-fun x494 () Int
    428)
  (define-fun x503 () Int
    254)
  (define-fun x155 () Int
    102)
  (define-fun x513 () Int
    259)
  (define-fun x541 () Int
    273)
  (define-fun x91 () Int
    38)
  (define-fun x380 () Int
    206)
  (define-fun x116 () Int
    79)
  (define-fun x369 () Int
    299)
  (define-fun x388 () Int
    209)
  (define-fun x575 () Int
    302)
  (define-fun x563 () Int
    293)
  (define-fun x313 () Int
    187)
  (define-fun x312 () Int
    257)
  (define-fun x19 () Int
    13)
  (define-fun x512 () Int
    437)
  (define-fun x219 () Int
    138)
  (define-fun x147 () Int
    91)
  (define-fun x545 () Int
    277)
  (define-fun x32 () Int
    19)
  (define-fun x411 () Int
    220)
  (define-fun x47 () Int
    25)
  (define-fun x259 () Int
    221)
  (define-fun x197 () Int
    140)
  (define-fun x83 () Int
    35)
  (define-fun x143 () Int
    80)
  (define-fun x160 () Int
    107)
  (define-fun x54 () Int
    38)
  (define-fun x310 () Int
    256)
  (define-fun x141 () Int
    79)
  (define-fun x344 () Int
    198)
  (define-fun x458 () Int
    402)
  (define-fun x676 () Int
    388)
  (define-fun x63 () Int
    47)
  (define-fun x491 () Int
    248)
  (define-fun x360 () Int
    286)
  (define-fun x530 () Int
    444)
  (define-fun x546 () Int
    278)
  (define-fun x738 () Int
    451)
  (define-fun x127 () Int
    83)
  (define-fun x296 () Int
    238)
  (define-fun x684 () Int
    394)
  (define-fun x9 () Int
    9)
  (define-fun x99 () Int
    62)
  (define-fun x412 () Int
    370)
  (define-fun x247 () Int
    162)
  (define-fun x67 () Int
    50)
  (define-fun x399 () Int
    214)
  (define-fun x504 () Int
    433)
  (define-fun x401 () Int
    215)
  (define-fun x600 () Int
    323)
  (define-fun x640 () Int
    356)
  (define-fun x735 () Int
    448)
  (define-fun x400 () Int
    360)
  (define-fun x395 () Int
    212)
  (define-fun x106 () Int
    75)
  (define-fun x358 () Int
    284)
  (define-fun x27 () Int
    15)
  (define-fun x352 () Int
    201)
  (define-fun x78 () Int
    53)
  (define-fun x249 () Int
    164)
  (define-fun x525 () Int
    442)
  (define-fun x25 () Int
    16)
  (define-fun x508 () Int
    435)
  (define-fun x28 () Int
    17)
  (define-fun x592 () Int
    317)
  (define-fun x618 () Int
    338)
  (define-fun x509 () Int
    257)
  (define-fun x658 () Int
    372)
  (define-fun x454 () Int
    394)
  (define-fun x404 () Int
    362)
  (define-fun x634 () Int
    352)
  (define-fun x518 () Int
    439)
  (define-fun x70 () Int
    29)
  (define-fun x173 () Int
    95)
  (define-fun x371 () Int
    301)
  (define-fun x139 () Int
    78)
  (define-fun x515 () Int
    438)
  (define-fun x418 () Int
    373)
  (define-fun x405 () Int
    217)
  (define-fun x22 () Int
    14)
  (define-fun x161 () Int
    108)
  (define-fun x181 () Int
    121)
  (define-fun x716 () Int
    421)
  (define-fun x486 () Int
    417)
  (define-fun x501 () Int
    253)
  (define-fun x285 () Int
    175)
  (define-fun x69 () Int
    28)
  (define-fun x295 () Int
    179)
  (define-fun x42 () Int
    22)
  (define-fun x200 () Int
    129)
  (define-fun x93 () Int
    59)
  (define-fun x376 () Int
    303)
  (define-fun x471 () Int
    240)
  (define-fun x440 () Int
    231)
  (define-fun x597 () Int
    320)
  (define-fun x305 () Int
    183)
  (define-fun x235 () Int
    156)
  (define-fun x681 () Int
    391)
  (define-fun x485 () Int
    246)
  (define-fun x608 () Int
    331)
  (define-fun x669 () Int
    381)
  (define-fun x142 () Int
    89)
  (define-fun x576 () Int
    303)
  (define-fun x60 () Int
    44)
  (define-fun x602 () Int
    325)
  (define-fun x287 () Int
    176)
  (define-fun x466 () Int
    410)
  (define-fun x584 () Int
    309)
  (define-fun x53 () Int
    37)
  (define-fun x493 () Int
    249)
  (define-fun x520 () Int
    440)
  (define-fun x437 () Int
    230)
  (define-fun x112 () Int
    69)
  (define-fun x627 () Int
    345)
  (define-fun x628 () Int
    346)
  (define-fun x641 () Int
    357)
  (define-fun x746 () Int
    457)
  (define-fun x688 () Int
    398)
  (define-fun x29 () Int
    16)
  (define-fun x196 () Int
    127)
  (define-fun x233 () Int
    155)
  (define-fun x165 () Int
    112)
  (define-fun x526 () Int
    264)
  (define-fun x570 () Int
    298)
  (define-fun x289 () Int
    177)
  (define-fun x581 () Int
    306)
  (define-fun x539 () Int
    271)
  (define-fun x663 () Int
    376)
  (define-fun x555 () Int
    285)
  (define-fun x700 () Int
    408)
  (define-fun x2 () Int
    2)
  (define-fun x331 () Int
    265)
  (define-fun x406 () Int
    367)
  (define-fun x674 () Int
    386)
  (define-fun x292 () Int
    178)
  (define-fun x256 () Int
    214)
  (define-fun x52 () Int
    36)
  (define-fun x81 () Int
    34)
  (define-fun x333 () Int
    194)
  (define-fun x12 () Int
    12)
  (define-fun x483 () Int
    245)
  (define-fun x590 () Int
    315)
  (define-fun x353 () Int
    273)
  (define-fun x638 () Int
    355)
  (define-fun x519 () Int
    261)
  (define-fun x57 () Int
    41)
  (define-fun x668 () Int
    380)
  (define-fun x168 () Int
    115)
  (define-fun x51 () Int
    35)
  (define-fun x671 () Int
    383)
  (define-fun x719 () Int
    424)
  (define-fun x507 () Int
    256)
  (define-fun x622 () Int
    341)
  (define-fun x316 () Int
    188)
  (define-fun x670 () Int
    382)
  (define-fun x124 () Int
    74)
  (define-fun x694 () Int
    404)
  (define-fun x61 () Int
    45)
  (define-fun x718 () Int
    423)
  (define-fun x346 () Int
    199)
  (define-fun x596 () Int
    319)
  (define-fun x715 () Int
    420)
  (define-fun x193 () Int
    103)
  (define-fun x610 () Int
    333)
  (define-fun x5 () Int
    5)
  (define-fun x429 () Int
    227)
  (define-fun x496 () Int
    429)
  (define-fun x328 () Int
    264)
  (define-fun x607 () Int
    330)
  (define-fun x330 () Int
    193)
  (define-fun x654 () Int
    370)
  (define-fun x661 () Int
    374)
  (define-fun x216 () Int
    137)
  (define-fun x436 () Int
    379)
  (define-fun x366 () Int
    296)
  (define-fun x44 () Int
    22)
  (define-fun x482 () Int
    415)
  (define-fun x356 () Int
    282)
  (define-fun x488 () Int
    247)
  (define-fun x651 () Int
    367)
  (define-fun x723 () Int
    427)
  (define-fun x46 () Int
    24)
  (define-fun x229 () Int
    141)
  (define-fun x432 () Int
    228)
  (define-fun x213 () Int
    148)
  (define-fun x495 () Int
    250)
  (define-fun x396 () Int
    358)
  (define-fun x205 () Int
    144)
  (define-fun x275 () Int
    231)
  (define-fun x260 () Int
    222)
  (define-fun x543 () Int
    275)
  (define-fun x464 () Int
    408)
  (define-fun x646 () Int
    362)
  (define-fun x158 () Int
    105)
  (define-fun x103 () Int
    64)
  (define-fun x204 () Int
    131)
  (define-fun x8 () Int
    8)
  (define-fun x263 () Int
    225)
  (define-fun x398 () Int
    359)
  (define-fun x222 () Int
    139)
  (define-fun x1 () Int
    1)
  (define-fun x745 () Int
    456)
  (define-fun x448 () Int
    236)
  (define-fun x108 () Int
    76)
  (define-fun x85 () Int
    36)
  (define-fun x484 () Int
    416)
  (define-fun x408 () Int
    368)
  (define-fun x652 () Int
    368)
  (define-fun x548 () Int
    280)
  (define-fun x441 () Int
    381)
  (define-fun x465 () Int
    409)
  (define-fun x672 () Int
    384)
  (define-fun x384 () Int
    208)
  (define-fun x631 () Int
    349)
  (define-fun x298 () Int
    180)
  (define-fun x705 () Int
    412)
  (define-fun x707 () Int
    413)
  (define-fun x685 () Int
    395)
  (define-fun x76 () Int
    32)
  (define-fun x250 () Int
    165)
  (define-fun x311 () Int
    186)
  (define-fun x446 () Int
    234)
  (define-fun x89 () Int
    57)
  (define-fun x102 () Int
    43)
  (define-fun x191 () Int
    102)
  (define-fun x324 () Int
    262)
  (define-fun x145 () Int
    81)
  (define-fun x198 () Int
    128)
  (define-fun x286 () Int
    234)
  (define-fun x391 () Int
    210)
  (define-fun x536 () Int
    268)
  (define-fun x151 () Int
    83)
  (define-fun x178 () Int
    97)
  (define-fun x422 () Int
    225)
  (define-fun x583 () Int
    308)
  (define-fun x97 () Int
    61)
  (define-fun x731 () Int
    444)
  (define-fun x444 () Int
    382)
  (define-fun x357 () Int
    283)
  (define-fun x410 () Int
    369)
  (define-fun x156 () Int
    103)
  (define-fun x320 () Int
    260)
  (define-fun x171 () Int
    117)
  (define-fun x462 () Int
    406)
  (define-fun x364 () Int
    294)
  (define-fun x562 () Int
    292)
  (define-fun x601 () Int
    324)
  (define-fun x227 () Int
    153)
  (define-fun x435 () Int
    229)
  (define-fun x393 () Int
    211)
  (define-fun x264 () Int
    226)
  (define-fun x307 () Int
    184)
  (define-fun x246 () Int
    161)
  (define-fun x269 () Int
    167)
  (define-fun x319 () Int
    189)
  (define-fun x50 () Int
    34)
  (define-fun x304 () Int
    249)
  (define-fun x413 () Int
    221)
  (define-fun x447 () Int
    235)
  (define-fun x690 () Int
    400)
  (define-fun x710 () Int
    415)
  (define-fun x167 () Int
    114)
  (define-fun x265 () Int
    227)
  (define-fun x340 () Int
    196)
  (define-fun x182 () Int
    99)
  (define-fun x378 () Int
    304)
  (define-fun x217 () Int
    150)
  (define-fun x749 () Int
    458)
  (define-fun x239 () Int
    145)
  (define-fun x739 () Int
    452)
  (define-fun x552 () Int
    282)
  (define-fun x58 () Int
    42)
  (define-fun x479 () Int
    414)
  (define-fun x362 () Int
    288)
  (define-fun x241 () Int
    158)
  (define-fun x564 () Int
    294)
  (define-fun x16 () Int
    13)
  (define-fun x261 () Int
    223)
  (define-fun x14 () Int
    12)
  (define-fun x497 () Int
    251)
  (define-fun x620 () Int
    340)
  (define-fun x402 () Int
    361)
  (define-fun x636 () Int
    354)
  (define-fun x6 () Int
    6)
  (define-fun x225 () Int
    140)
  (define-fun x237 () Int
    157)
  (define-fun x381 () Int
    305)
  (define-fun x473 () Int
    412)
  (define-fun x619 () Int
    339)
  (define-fun x101 () Int
    63)
  (define-fun x43 () Int
    21)
  (define-fun x284 () Int
    233)
  (define-fun x475 () Int
    413)
  (define-fun x363 () Int
    293)
  (define-fun x561 () Int
    291)
  (define-fun x666 () Int
    378)
  (define-fun x648 () Int
    364)
  (define-fun x527 () Int
    443)
  (define-fun x361 () Int
    287)
  (define-fun x647 () Int
    363)
  (define-fun x166 () Int
    113)
  (define-fun x502 () Int
    432)
  (define-fun x135 () Int
    86)
  (define-fun x370 () Int
    300)
  (define-fun x472 () Int
    241)
  (define-fun x157 () Int
    104)
  (define-fun x439 () Int
    380)
  (define-fun x280 () Int
    232)
  (define-fun x251 () Int
    166)
  (define-fun x206 () Int
    132)
  (define-fun x477 () Int
    243)
  (define-fun x457 () Int
    397)
  (define-fun x359 () Int
    285)
  (define-fun x210 () Int
    134)
  (define-fun x450 () Int
    238)
  (define-fun x190 () Int
    124)
  (define-fun x270 () Int
    168)
  (define-fun x212 () Int
    135)
  (define-fun x345 () Int
    270)
  (define-fun x419 () Int
    224)
  (define-fun x374 () Int
    302)
  (define-fun x403 () Int
    216)
  (define-fun x288 () Int
    235)
  (define-fun x236 () Int
    144)
  (define-fun x276 () Int
    171)
  (define-fun x94 () Int
    39)
  (define-fun x281 () Int
    173)
  (define-fun x271 () Int
    169)
  (define-fun x308 () Int
    251)
  (define-fun x604 () Int
    327)
  (define-fun x643 () Int
    359)
  (define-fun x7 () Int
    7)
  (define-fun x683 () Int
    393)
  (define-fun x82 () Int
    54)
  (define-fun x415 () Int
    222)
  (define-fun x630 () Int
    348)
  (define-fun x258 () Int
    216)
  (define-fun x169 () Int
    116)
  (define-fun x65 () Int
    49)
  (define-fun x407 () Int
    218)
  (define-fun x568 () Int
    297)
  (define-fun x721 () Int
    426)
  (define-fun x524 () Int
    263)
  (define-fun x122 () Int
    73)
  (define-fun x573 () Int
    300)
  (define-fun x714 () Int
    419)
  (define-fun x230 () Int
    154)
  (define-fun x510 () Int
    436)
  (define-fun x118 () Int
    71)
  (define-fun x55 () Int
    39)
  (define-fun x73 () Int
    31)
  (define-fun x72 () Int
    51)
  (define-fun x741 () Int
    453)
  (define-fun x451 () Int
    391)
  (define-fun x377 () Int
    205)
  (define-fun x538 () Int
    270)
  (define-fun x725 () Int
    428)
  (define-fun x744 () Int
    455)
  (define-fun x303 () Int
    248)
  (define-fun x632 () Int
    350)
  (define-fun x110 () Int
    77)
  (define-fun x550 () Int
    281)
  (define-fun x382 () Int
    207)
  (define-fun x79 () Int
    33)
  (define-fun x208 () Int
    133)
  (define-fun x144 () Int
    90)
  (define-fun x480 () Int
    244)
  (define-fun x322 () Int
    190)
  (define-fun x642 () Int
    358)
  (define-fun x679 () Int
    390)
  (define-fun x192 () Int
    125)
  (define-fun x262 () Int
    224)
  (define-fun x243 () Int
    159)
  (define-fun x603 () Int
    326)
  (define-fun x257 () Int
    215)
  (define-fun x318 () Int
    259)
  (define-fun x321 () Int
    261)
  (define-fun x211 () Int
    147)
  (define-fun x582 () Int
    307)
  (define-fun x662 () Int
    375)
  (define-fun x692 () Int
    402)
  (define-fun x315 () Int
    258)
  (define-fun x665 () Int
    377)
  (define-fun x686 () Int
    396)
  (define-fun x717 () Int
    422)
  (define-fun x62 () Int
    46)
  (define-fun x426 () Int
    226)
  (define-fun x207 () Int
    145)
  (define-fun x612 () Int
    334)
  (define-fun x649 () Int
    365)
  (define-fun x553 () Int
    283)
  (define-fun x272 () Int
    230)
  (define-fun x453 () Int
    393)
  (define-fun x587 () Int
    312)
  (define-fun x325 () Int
    191)
  (define-fun x10 () Int
    10)
  (define-fun x35 () Int
    20)
  (define-fun x245 () Int
    146)
  (define-fun x86 () Int
    56)
  (define-fun x342 () Int
    197)
  (define-fun x506 () Int
    434)
  (define-fun x417 () Int
    223)
  (define-fun x105 () Int
    65)
  (define-fun x180 () Int
    98)
  (define-fun x704 () Int
    411)
  (define-fun x255 () Int
    213)
  (define-fun x656 () Int
    371)
  (define-fun x203 () Int
    143)
  (define-fun x586 () Int
    311)
  (define-fun x392 () Int
    356)
  (define-fun x153 () Int
    94)
  (define-fun x20 () Int
    14)
  (define-fun x365 () Int
    295)
  (define-fun x645 () Int
    361)
  (define-fun x163 () Int
    110)
  (define-fun x95 () Int
    60)
  (define-fun x712 () Int
    417)
  (define-fun x107 () Int
    66)
  (define-fun x59 () Int
    43)
  (define-fun x266 () Int
    228)
  (define-fun x421 () Int
    374)
  (define-fun x326 () Int
    263)
  (define-fun x500 () Int
    431)
  (define-fun x697 () Int
    406)
  (define-fun x154 () Int
    101)
  (define-fun x626 () Int
    344)
  (define-fun x49 () Int
    27)
  (define-fun x443 () Int
    232)
  (define-fun x134 () Int
    77)
  (define-fun x617 () Int
    337)
  (define-fun x338 () Int
    267)
  (define-fun x253 () Int
    211)
  (define-fun x427 () Int
    376)
  (define-fun x343 () Int
    269)
  (define-fun x138 () Int
    87)
  (define-fun x297 () Int
    245)
  (define-fun x542 () Int
    274)
  (define-fun x547 () Int
    279)
  (define-fun x559 () Int
    289)
  (define-fun x301 () Int
    247)
  (define-fun x274 () Int
    170)
  (define-fun x128 () Int
    75)
  (define-fun x162 () Int
    109)
  (define-fun x341 () Int
    268)
  (define-fun x736 () Int
    449)
  (define-fun x194 () Int
    126)
  (define-fun x115 () Int
    70)
  (define-fun x499 () Int
    252)
  (define-fun x31 () Int
    17)
  (define-fun x209 () Int
    146)
  (define-fun x293 () Int
    237)
  (define-fun x424 () Int
    375)
  (define-fun x556 () Int
    286)
  (define-fun x92 () Int
    58)
  (define-fun x64 () Int
    48)
  (define-fun x4 () Int
    4)
  (define-fun x254 () Int
    212)
  (define-fun x537 () Int
    269)
  (define-fun x578 () Int
    304)
  (define-fun x588 () Int
    313)
  (define-fun x625 () Int
    343)
  (define-fun x653 () Int
    369)
  (define-fun x354 () Int
    202)
  (define-fun x220 () Int
    151)
  (define-fun x606 () Int
    329)
  (define-fun x252 () Int
    210)
  (define-fun x41 () Int
    20)
  (define-fun x580 () Int
    305)
  (define-fun x109 () Int
    67)
  (define-fun x186 () Int
    100)
  (define-fun x30 () Int
    18)
  (define-fun x309 () Int
    185)
  (define-fun x88 () Int
    37)
  (define-fun x461 () Int
    405)
  (define-fun x179 () Int
    120)
  (define-fun x489 () Int
    418)
  (define-fun x521 () Int
    262)
  (define-fun x355 () Int
    203)
  (define-fun x734 () Int
    447)
  (define-fun x659 () Int
    373)
  (define-fun x202 () Int
    130)
  (define-fun x104 () Int
    74)
  (define-fun x132 () Int
    85)
  (define-fun x267 () Int
    229)
  (define-fun x74 () Int
    52)
  (define-fun x709 () Int
    414)
  (define-fun x201 () Int
    142)
  (define-fun x703 () Int
    410)
  (define-fun x635 () Int
    353)
  (define-fun x175 () Int
    96)
  (define-fun x557 () Int
    287)
  (define-fun x96 () Int
    40)
  (define-fun x474 () Int
    242)
  (define-fun x302 () Int
    182)
  (define-fun x599 () Int
    322)
  (define-fun x17 () Int
    14)
  (define-fun x463 () Int
    407)
  (define-fun x534 () Int
    267)
  (define-fun x743 () Int
    454)
  (define-fun x111 () Int
    68)
  (define-fun x140 () Int
    88)
  (define-fun x713 () Int
    418)
  (define-fun x677 () Int
    389)
  (define-fun x614 () Int
    335)
  (define-fun x290 () Int
    236)
  (define-fun x71 () Int
    30)
  (define-fun x693 () Int
    403)
  (define-fun x39 () Int
    21)
  (define-fun x37 () Int
    19)
  (define-fun x460 () Int
    404)
  (define-fun x23 () Int
    15)
  (define-fun x532 () Int
    266)
  (define-fun x492 () Int
    419)
  (define-fun x174 () Int
    118)
  (define-fun x726 () Int
    429)
  (define-fun x152 () Int
    93)
  (define-fun x224 () Int
    152)
  (define-fun x248 () Int
    163)
  (define-fun x516 () Int
    260)
  (define-fun x367 () Int
    297)
  (define-fun x589 () Int
    314)
  (define-fun x574 () Int
    301)
  (define-fun x498 () Int
    430)
  (define-fun x48 () Int
    26)
  (define-fun x3 () Int
    3)
  (define-fun x558 () Int
    288)
  (define-fun x727 () Int
    430)
  (define-fun x130 () Int
    84)
  (define-fun x673 () Int
    385)
  (define-fun x505 () Int
    255)
  (define-fun x184 () Int
    122)
  (define-fun x728 () Int
    431)
  (define-fun x720 () Int
    425)
  (define-fun x591 () Int
    316)
  (define-fun x695 () Int
    405)
  (define-fun x306 () Int
    250)
  (define-fun x120 () Int
    72)
  (define-fun x699 () Int
    407)
  (define-fun x585 () Int
    310)
  (define-fun x409 () Int
    219)
  (define-fun x349 () Int
    200)
  (define-fun x554 () Int
    284)
  (define-fun x459 () Int
    403)
  (define-fun x126 () Int
    82)
  (define-fun x150 () Int
    92)
  (define-fun x336 () Int
    195)
  (define-fun x711 () Int
    416)
  (define-fun x188 () Int
    123)
  (define-fun x609 () Int
    332)
  (define-fun x299 () Int
    246)
  (define-fun x300 () Int
    181)
  (define-fun x164 () Int
    111)
  (define-fun x414 () Int
    371)
  (define-fun x605 () Int
    328)
  (define-fun x433 () Int
    378)
  (define-fun x199 () Int
    141)
  (define-fun x373 () Int
    204)
  (define-fun x394 () Int
    357)
  (define-fun x455 () Int
    395)
  (define-fun x470 () Int
    239)
  (define-fun x468 () Int
    411)
  (define-fun x594 () Int
    318)
  (define-fun x729 () Int
    432)
  (define-fun x615 () Int
    336)
  (define-fun x84 () Int
    55)
  (define-fun x335 () Int
    266)
  (define-fun x560 () Int
    290)
  (define-fun x523 () Int
    441)
  (define-fun x148 () Int
    82)
  (define-fun x195 () Int
    139)
  (define-fun x390 () Int
    308)
  (define-fun x511 () Int
    258)
  (define-fun x624 () Int
    342)
  (define-fun x629 () Int
    347)
  (define-fun x189 () Int
    101)
  (define-fun x449 () Int
    237)
  (define-fun x234 () Int
    143)
  (define-fun x244 () Int
    160)
  (define-fun x327 () Int
    192)
  (define-fun x33 () Int
    18)
  (define-fun x278 () Int
    172)
  (define-fun x159 () Int
    106)
  (define-fun x131 () Int
    76)
  (define-fun x571 () Int
    299)
  (define-fun x121 () Int
    81)
  (define-fun x445 () Int
    233)
  (define-fun x633 () Int
    351)
  (define-fun x11 () Int
    11)
  (define-fun x650 () Int
    366)
  (define-fun x687 () Int
    397)
  (define-fun x702 () Int
    409)
  (define-fun x350 () Int
    272)
  (define-fun x730 () Int
    443)
  (define-fun x45 () Int
    23)
  (define-fun x176 () Int
    119)
  (define-fun x383 () Int
    306)
  (define-fun x598 () Int
    321)
  (define-fun x689 () Int
    399)
  (define-fun x566 () Int
    296)
  (define-fun x347 () Int
    271)
  (define-fun x416 () Int
    372)
  (define-fun x540 () Int
    272)
  (define-fun x565 () Int
    295)
  (define-fun x732 () Int
    445)
  (define-fun x98 () Int
    41)
  (define-fun x733 () Int
    446)
  (define-fun x56 () Int
    40)
  (define-fun x667 () Int
    379)
  (define-fun x644 () Int
    360)
  (define-fun x452 () Int
    392)
  (define-fun x283 () Int
    174)
  (define-fun x386 () Int
    307)
  (define-fun x368 () Int
    298)
  (define-fun x675 () Int
    387)
  (define-fun x214 () Int
    136)
  (define-fun x431 () Int
    377)
  (define-fun x682 () Int
    392)
  (define-fun x397 () Int
    213)
  (define-fun x737 () Int
    450)
  (define-fun x544 () Int
    276)
  (define-fun x113 () Int
    78)
  (define-fun x231 () Int
    142)
  (define-fun x456 () Int
    396)
  (define-fun x119 () Int
    80)
  (define-fun x529 () Int
    265)
  (define-fun x691 () Int
    401)
  (define-fun x100 () Int
    42)
)
